c instance by G2
c solution = 0000001111011001101
c Known solution cost is 920 
p cnf 19 30
w 85 28 2 31 7 45 90 37 44 28 40 99 32 85 65 90 22 9 81
8 15 -10 0
10 8 13 0
-2 -16 -7 0
-4 -8 1 0
-1 3 17 0
-10 14 17 0
5 -9 -11 0
9 10 -14 0
6 12 -16 0
19 -13 4 0
-9 -15 -7 0
4 -9 -6 0
11 -10 -18 0
-3 18 -19 0
4 7 -16 0
1 -17 -14 0
11 10 -9 0
-16 -2 4 0
-2 -10 -1 0
3 16 -13 0
12 5 -16 0
-2 -8 -17 0
-6 -15 16 0
-16 13 4 0
14 16 8 0
-1 15 2 0
13 -12 14 0
-8 -13 9 0
4 -11 19 0
14 -5 6 0
